p cnf 75 100
11 0
-11 12 0
-11 33 0
-12 13 15 0
-13 1 0
-13 14 0
-14 2 0
-14 -3 0
-15 16 18 0
-16 17 0
-16 6 0
-17 4 -5 0
-18 19 21 0
-19 2 0
-19 20 0
-20 7 0
-20 -8 0
-21 22 24 0
-22 -6 0
-22 23 0
-23 5 -4 0
-24 25 27 0
-25 5 0
-25 26 0
-26 1 -9 0
-27 28 30 0
-28 -5 0
-28 29 0
-29 -1 9 0
-30 31 32 0
-31 -2 0
-31 3 0
-32 -2 0
-32 8 0
-33 34 0
-33 55 0
-34 35 0
-34 37 0
-35 -2 36 0
-36 -7 8 0
-37 38 0
-37 40 0
-38 -6 39 0
-39 5 0
-39 -4 0
-40 41 0
-40 43 0
-41 -5 42 0
-42 -1 0
-42 9 0
-43 44 0
-43 46 0
-44 5 45 0
-45 1 0
-45 -9 0
-46 47 0
-46 48 0
-47 2 -3 0
-48 49 0
-48 50 0
-49 2 -8 0
-50 51 0
-50 53 0
-51 -1 52 0
-52 -2 3 0
-53 6 54 0
-54 4 0
-54 -5 0
-55 56 0
-55 58 0
-56 -6 57 0
-57 5 0
-57 -4 0
-58 59 0
-58 61 0
-59 -5 60 0
-60 -1 0
-60 9 0
-61 62 0
-61 64 0
-62 5 63 0
-63 1 0
-63 -9 0
-64 65 0
-64 66 0
-65 2 -3 0
-66 67 0
-66 68 0
-67 2 -10 0
-68 69 0
-68 71 0
-69 -2 70 0
-70 -7 10 0
-71 72 0
-71 74 0
-72 -1 73 0
-73 -2 3 0
-74 6 75 0
-75 4 0
-75 -5 0
